nNurses = 128;
nHours = 27;
minHours = 7;
maxHours = 19;
maxConsec = 14;
maxPresence = 21;
demand = [24, 26, 26, 26, 31, 30, 35, 40, 43, 42, 41, 43, 47, 44, 45, 41, 43, 42, 42, 43, 38, 41, 46, 47, 49, 44, 46];
